c turning on binary mode checking
c parsing input formula with 53279 variables and 383465 clauses
c finished parsing, read 8181887 bytes from proof file
c detected empty clause; start verification via backward checking
c 26490 of 383465 clauses in core                            
c 25516 of 163490 lemmas in core using 1191275 resolution steps
c 0 RAT lemmas in core; 13141 redundant literals in core lemmas
s VERIFIED
c verification time: 1.643 seconds
